NAME: I27485-n89-k6
COMMENT : (Fake et al, No of trucks: 6, Optimal value: )
TYPE : CVRP
DIMENSION : 89
EDGE_WEIGHT_TYPE : EUC_2D
CAPACITY : 26
NODE_COORD_SECTION
1 386 168
2 481 373
3 303 843
4 269 933
5 460 129
6 668 976
7 432 791
8 469 619
9 684 594
10 290 816
11 405 216
12 700 173
13 809 737
14 566 439
15 629 654
16 525 492
17 271 405
18 915 752
19 776 173
20 610 834
21 15 197
22 203 641
23 335 197
24 223 522
25 729 132
26 577 650
27 60 631
28 990 680
29 304 760
30 55 671
31 654 601
32 503 952
33 549 903
34 67 300
35 614 332
36 706 427
37 447 602
38 847 193
39 939 740
40 49 429
41 382 655
42 198 25
43 254 88
44 349 865
45 102 641
46 670 787
47 850 39
48 527 730
49 132 736
50 282 454
51 866 757
52 771 519
53 230 921
54 245 106
55 899 883
56 194 107
57 946 621
58 645 344
59 845 517
60 532 493
61 838 948
62 741 89
63 761 767
64 220 248
65 978 812
66 471 826
67 281 828
68 11 474
69 270 568
70 812 826
71 331 787
72 726 784
73 609 221
74 4 598
75 391 873
76 99 950
77 840 542
78 41 944
79 752 834
80 233 839
81 772 463
82 605 639
83 355 657
84 877 20
85 790 688
86 451 661
87 254 513
88 103 823
89 33 104
DEMAND_SECTION
1 0
2 1
3 1
4 2
5 1
6 1
7 2
8 2
9 1
10 2
11 2
12 2
13 2
14 1
15 2
16 2
17 1
18 2
19 1
20 2
21 2
22 1
23 2
24 1
25 2
26 1
27 1
28 2
29 2
30 2
31 2
32 1
33 1
34 1
35 2
36 2
37 1
38 1
39 1
40 1
41 1
42 1
43 2
44 1
45 1
46 2
47 1
48 2
49 2
50 2
51 2
52 2
53 2
54 2
55 1
56 2
57 1
58 1
59 2
60 2
61 2
62 1
63 1
64 1
65 1
66 2
67 1
68 1
69 2
70 2
71 2
72 1
73 2
74 1
75 2
76 1
77 1
78 1
79 2
80 1
81 2
82 1
83 2
84 1
85 2
86 2
87 1
88 2
89 1
DEPOT_SECTION
 1
 -1
 EOF 